k = 54;
b = 27;
AtomicConstraints =  [|
1, 3|
	1, 4|
	1, 5|
	1, 8|
	1, 9|
	1, 18|
	1, 49|
	1, 51|
	1, 47|
	1, 54|
	1, 52|
	1, 46|
	1, 50|
	1, 48|
	2, 3|
	2, 4|
	2, 5|
	2, 8|
	2, 9|
	2, 18|
	2, 49|
	2, 51|
	2, 47|
	2, 54|
	2, 46|
	2, 50|
	2, 48|
	3, 18|
	4, 18|
	5, 18|
	6, 3|
	6, 4|
	6, 5|
	6, 7|
	6, 18|
	6, 49|
	6, 51|
	6, 47|
	7, 3|
	7, 4|
	7, 5|
	7, 18|
	7, 49|
	7, 51|
	7, 47|
	8, 3|
	8, 4|
	8, 5|
	8, 9|
	8, 18|
	8, 49|
	8, 51|
	8, 47|
	8, 46|
	8, 50|
	8, 48|
	9, 3|
	9, 4|
	9, 5|
	9, 18|
	9, 49|
	9, 51|
	9, 47|
	9, 50|
	9, 48|
	10, 18|
	10, 54|
	10, 52|
	10, 53|
	10, 46|
	11, 3|
	11, 18|
	11, 54|
	11, 52|
	11, 53|
	11, 46|
	11, 50|
	12, 3|
	12, 4|
	12, 18|
	12, 54|
	12, 52|
	12, 53|
	12, 46|
	12, 50|
	12, 48|
	13, 3|
	13, 4|
	13, 5|
	13, 18|
	13, 54|
	13, 52|
	13, 53|
	13, 46|
	13, 50|
	13, 48|
	14, 3|
	14, 4|
	14, 5|
	14, 18|
	14, 54|
	14, 52|
	14, 53|
	14, 46|
	14, 50|
	14, 48|
	16, 53|
	17, 52|
	17, 53|
	37, 19|
	37, 20|
	37, 21|
	37, 22|
	37, 23|
	37, 24|
	37, 34|
	37, 25|
	37, 36|
	29, 20|
	29, 22|
	29, 24|
	29, 25|
	29, 26|
	29, 27|
	29, 43|
	29, 39|
	29, 31|
	28, 35|
	28, 19|
	28, 20|
	28, 21|
	28, 22|
	28, 34|
	28, 36|
	19, 20|
	19, 22|
	35, 19|
	35, 20|
	35, 21|
	35, 22|
	35, 34|
	35, 36|
	21, 20|
	21, 22|
	21, 24|
	23, 20|
	23, 22|
	23, 24|
	25, 22|
	25, 24|
	26, 24|
	26, 27|
	26, 39|
	26, 31|
	27, 31|
	34, 19|
	34, 20|
	34, 21|
	34, 22|
	43, 27|
	43, 39|
	43, 31|
	43, 40|
	43, 32|
	43, 45|
	39, 31|
	39, 32|
	39, 45|
	31, 45|
	42, 39|
	42, 31|
	42, 40|
	42, 32|
	42, 45|
	42, 38|
	42, 30|
	40, 31|
	40, 32|
	40, 45|
	40, 30|
	32, 45|
	33, 35|
	33, 19|
	33, 20|
	33, 21|
	33, 22|
	33, 23|
	33, 24|
	33, 34|
	33, 36|
	44, 31|
	44, 40|
	44, 32|
	44, 45|
	44, 38|
	44, 30|
	38, 32|
	38, 45|
	38, 30|
	30, 45|
	36, 19|
	36, 20|
	36, 21|
	36, 22|
	36, 23|
	36, 24|
	41, 37|
	41, 19|
	41, 20|
	41, 21|
	41, 22|
	41, 23|
	41, 24|
	41, 34|
	41, 25|
	41, 36|
	49, 18|
	51, 18|
	47, 18|
	46, 3|
	46, 18|
	50, 3|
	50, 4|
	50, 18|
	48, 3|
	48, 4|
	48, 5|
	48, 18|];
DisjunctiveConstraints =  [|1, 47, 1, 20|
	4, 5, 4, 3|
	6, 7, 6, 34|
	8, 51, 8, 24|
	9, 51, 9, 24|
	10, 50, 23, 10|
	11, 12, 11, 10|
	11, 46, 11, 19|
	11, 48, 21, 11|
	12, 4, 12, 31|
	12, 13, 12, 11|
	12, 50, 12, 23|
	13, 5, 13, 32|
	13, 14, 13, 12|
	13, 48, 13, 21|
	16, 17, 16, 15|
	17, 25, 17, 52|
	37, 25, 37, 52|
	29, 39, 12, 29|
	29, 31, 4, 29|
	29, 54, 29, 27|
	29, 53, 29, 26|
	28, 7, 28, 34|
	28, 8, 28, 35|
	28, 21, 48, 28|
	28, 47, 28, 20|
	28, 46, 28, 19|
	19, 47, 19, 20|
	35, 7, 35, 34|
	35, 21, 48, 35|
	35, 47, 35, 20|
	35, 46, 35, 19|
	21, 23, 21, 19|
	21, 49, 21, 22|
	22, 24, 22, 20|
	23, 25, 23, 21|
	23, 51, 23, 24|
	25, 26, 25, 23|
	26, 43, 26, 25|
	26, 54, 26, 27|
	34, 47, 34, 20|
	43, 42, 43, 26|
	39, 40, 39, 27|
	42, 13, 42, 40|
	42, 18, 42, 45|
	42, 44, 42, 43|
	40, 18, 40, 45|
	40, 38, 40, 39|
	32, 18, 32, 45|
	32, 30, 32, 31|
	33, 9, 33, 36|
	33, 23, 50, 33|
	33, 41, 33, 28|
	33, 49, 33, 22|
	33, 48, 33, 21|
	36, 49, 36, 22|
	41, 25, 41, 52|
	51, 47, 51, 49|
	52, 54, 52, 53|
	46, 3, 46, 30|
	50, 4, 50, 31|
	50, 48, 50, 46|
	48, 5, 48, 32|];
SoftAtomicConstraints =  [|
2, 1|
4, 3|
5, 4|
35, 5|
11, 10|
12, 11|
13, 12|
14, 13|
16, 15|
17, 16|
21, 19|
22, 20|
23, 21|
24, 22|
25, 23|
31, 24|
26, 25|
43, 26|
39, 27|
33, 28|
32, 31|
30, 32|
41, 33|
36, 34|
37, 35|
29, 36|
40, 39|
38, 40|
44, 42|
42, 43|
50, 46|
51, 49|
48, 50|
47, 51|
54, 52|
52, 53|];
DirectSuccessors =  [2,
6,
7,
28,
29,
35,
20,
22,
24,
34,
25,
26,
27,
33,
40,
45,
36,
49,
51,
47];
